(set-info :smt-lib-version 2.6)
(set-info :category "crafted")
(set-logic QF_FF)
(define-sort FF0 () (_ FiniteField 52435875175126190479447740508185965837690552500527637822603658699938581184513))
(declare-fun j () Bool)
(declare-fun e () Bool)
(declare-fun a () Bool)
(declare-fun h () Bool)
(declare-fun i () Bool)
(declare-fun f () Bool)
(declare-fun c () Bool)
(declare-fun b () Bool)
(declare-fun d () Bool)
(declare-fun g () Bool)
(declare-fun return_n7 () FF0)
(declare-fun mul_n67 () FF0)
(declare-fun mul_n70 () FF0)
(declare-fun mul_n73 () FF0)
(declare-fun mul_n12 () FF0)
(declare-fun mul_n15 () FF0)
(declare-fun mul_n62 () FF0)
(declare-fun mul_n65 () FF0)
(declare-fun mul_n56 () FF0)
(declare-fun mul_n39 () FF0)
(declare-fun mul_n30 () FF0)
(declare-fun mul_n33 () FF0)
(declare-fun mul_n68 () FF0)
(declare-fun mul_n71 () FF0)
(declare-fun mul_n42 () FF0)
(declare-fun mul_n13 () FF0)
(declare-fun e_n2 () FF0)
(declare-fun mul_n31 () FF0)
(declare-fun mul_n66 () FF0)
(declare-fun mul_n69 () FF0)
(declare-fun mul_n72 () FF0)
(declare-fun mul_n14 () FF0)
(declare-fun mul_n38 () FF0)
(declare-fun j_n3 () FF0)
(declare-fun mul_n55 () FF0)
(declare-fun mul_n29 () FF0)
(declare-fun mul_n61 () FF0)
(declare-fun is_zero_n64 () FF0)
(declare-fun is_zero_inv_n74 () FF0)
(declare-fun mul_n54 () FF0)
(declare-fun mul_n53 () FF0)
(declare-fun is_zero_n58 () FF0)
(declare-fun mul_n45 () FF0)
(declare-fun mul_n41 () FF0)
(declare-fun is_zero_n50 () FF0)
(declare-fun d_n4 () FF0)
(declare-fun f_n1 () FF0)
(declare-fun mul_n36 () FF0)
(declare-fun mul_n48 () FF0)
(declare-fun is_zero_n25 () FF0)
(declare-fun mul_n28 () FF0)
(declare-fun mul_n17 () FF0)
(declare-fun is_zero_n35 () FF0)
(declare-fun is_zero_inv_n63 () FF0)
(declare-fun is_zero_n47 () FF0)
(declare-fun mul_n60 () FF0)
(declare-fun mul_n59 () FF0)
(declare-fun mul_n51 () FF0)
(declare-fun i_n5 () FF0)
(declare-fun g_n9 () FF0)
(declare-fun mul_n19 () FF0)
(declare-fun is_zero_inv_n57 () FF0)
(declare-fun mul_n16 () FF0)
(declare-fun mul_n52 () FF0)
(declare-fun mul_n21 () FF0)
(declare-fun is_zero_inv_n49 () FF0)
(declare-fun mul_n44 () FF0)
(declare-fun mul_n40 () FF0)
(declare-fun mul_n43 () FF0)
(declare-fun a_n0 () FF0)
(declare-fun is_zero_inv_n46 () FF0)
(declare-fun is_zero_n23 () FF0)
(declare-fun c_n6 () FF0)
(declare-fun b_n10 () FF0)
(declare-fun mul_n18 () FF0)
(declare-fun mul_n37 () FF0)
(declare-fun h_n8 () FF0)
(declare-fun is_zero_inv_n34 () FF0)
(declare-fun mul_n32 () FF0)
(declare-fun is_zero_n27 () FF0)
(declare-fun mul_n11 () FF0)
(declare-fun is_zero_inv_n26 () FF0)
(declare-fun is_zero_inv_n24 () FF0)
(declare-fun is_zero_inv_n22 () FF0)
(declare-fun mul_n20 () FF0)
(assert 
  (let ((let0 j))
  (let ((let1 e))
  (let ((let2 a))
  (let ((let3 h))
  (let ((let4 (= let0 let3)))
  (let ((let5 (ite let4 let2 let1)))
  (let ((let6 (=> let5 let0)))
  (let ((let7 (= let6 let5)))
  (let ((let8 (or let7 let6)))
  (let ((let9 (not let8)))
  (let ((let10 i))
  (let ((let11 f))
  (let ((let12 (=> let2 let11)))
  (let ((let13 c))
  (let ((let14 (ite let13 let12 let10)))
  (let ((let15 (not let14)))
  (let ((let16 (= let15 let9)))
  (let ((let17 (and let4 let7)))
  (let ((let18 (not let7)))
  (let ((let19 b))
  (let ((let20 (or let19 let13 let10)))
  (let ((let21 d))
  (let ((let22 (or let3 let21 let20 let1)))
  (let ((let23 g))
  (let ((let24 (and let23 let1 let2 let12 let22 let21 let13 let19 let11 let19 let3 let22 let0 let23)))
  (let ((let25 (or let21 let14 let20 let24 let24 let14 let13 let4 let2 let24 let1 let20 let4 let14)))
  (let ((let26 (=> let25 let25)))
  (let ((let27 (ite let23 let26 let0)))
  (let ((let28 (and let27 let22)))
  (let ((let29 (=> let26 let6)))
  (let ((let30 (and let25 let19 let29)))
  (let ((let31 (or let30 let28 let18 let3)))
  (let ((let32 (ite let31 let17 let15)))
  (let ((let33 (or let32 let16 let16)))
  (let ((let34 (ite let11 let19 let27)))
  (let ((let35 (=> let27 let34)))
  (let ((let36 (not let28)))
  (let ((let37 (=> let36 let35)))
  (let ((let38 (=> let13 let37)))
  (let ((let39 (not let38)))
  (let ((let40 (not let30)))
  (let ((let41 (ite let22 let40 let27)))
  (let ((let42 (= let2 let41)))
  (let ((let43 (or let11 let37)))
  (let ((let44 (and let43 let17 let42 let35)))
  (let ((let45 (ite let18 let12 let10)))
  (let ((let46 (not let34)))
  (let ((let47 (or let46 let30 let20 let45)))
  (let ((let48 (not let29)))
  (let ((let49 (ite let48 let10 let45)))
  (let ((let50 (not let48)))
  (let ((let51 (and let28 let50 let12)))
  (let ((let52 (=> let34 let21)))
  (let ((let53 (=> let52 let49)))
  (let ((let54 (= let53 let8)))
  (let ((let55 (or let15 let49 let51 let54 let48 let8 let51 let32 let23 let17 let17)))
  (let ((let56 (ite let55 let49 let47)))
  (let ((let57 (or let56 let31 let44)))
  (let ((let58 (ite let50 let57 let18)))
  (let ((let59 (or let11 let45 let32 let26 let26 let31 let30 let6 let47 let46 let21 let24 let8 let47)))
  (let ((let60 (or let59 let7)))
  (let ((let61 (= let59 let46)))
  (let ((let62 (ite let37 let43 let54)))
  (let ((let63 (ite let62 let53 let50)))
  (let ((let64 (ite let36 let55 let62)))
  (let ((let65 (ite let50 let51 let40)))
  (let ((let66 (ite let52 let46 let9)))
  (let ((let67 (= let28 let57)))
  (let ((let68 (and let57 let28)))
  (let ((let69 (and let68 let67 let36 let66 let65 let64 let63 let61 let60 let58 let39 let33)))
  (let ((let70 return_n7))
  (let ((let71 (as ff1 FF0)))
  (let ((let72 (= let71 let70)))
  (let ((let73 (= let72 let69)))
  (let ((let74 (as ff0 FF0)))
  (let ((let75 (= let74 let70)))
  (let ((let76 (or let72 let75)))
  (let ((let77 (and let76 let73)))
  (let ((let78 (as ff8 FF0)))
  (let ((let79 (as ff52435875175126190479447740508185965837690552500527637822603658699938581184512 FF0)))
  (let ((let80 mul_n67))
  (let ((let81 (ff.mul let80 let79)))
  (let ((let82 mul_n70))
  (let ((let83 (ff.mul let82 let79)))
  (let ((let84 mul_n73))
  (let ((let85 (ff.mul let84 let79)))
  (let ((let86 mul_n12))
  (let ((let87 (ff.mul let86 let79)))
  (let ((let88 (as ff52435875175126190479447740508185965837690552500527637822603658699938581184511 FF0)))
  (let ((let89 mul_n15))
  (let ((let90 (ff.mul let89 let88)))
  (let ((let91 mul_n62))
  (let ((let92 (ff.mul let91 let79)))
  (let ((let93 mul_n65))
  (let ((let94 mul_n56))
  (let ((let95 (ff.mul let94 let79)))
  (let ((let96 mul_n39))
  (let ((let97 (ff.mul let96 let79)))
  (let ((let98 (as ff2 FF0)))
  (let ((let99 mul_n30))
  (let ((let100 (ff.mul let99 let98)))
  (let ((let101 mul_n33))
  (let ((let102 mul_n68))
  (let ((let103 (ff.mul let102 let79)))
  (let ((let104 mul_n71))
  (let ((let105 (ff.mul let104 let79)))
  (let ((let106 mul_n42))
  (let ((let107 (ff.mul let106 let79)))
  (let ((let108 mul_n13))
  (let ((let109 e_n2))
  (let ((let110 (ff.mul let109 let79)))
  (let ((let111 mul_n31))
  (let ((let112 mul_n66))
  (let ((let113 (ff.mul let112 let79)))
  (let ((let114 mul_n69))
  (let ((let115 (ff.mul let114 let79)))
  (let ((let116 mul_n72))
  (let ((let117 (ff.mul let116 let79)))
  (let ((let118 mul_n14))
  (let ((let119 mul_n38))
  (let ((let120 j_n3))
  (let ((let121 (ff.mul let120 let79)))
  (let ((let122 mul_n55))
  (let ((let123 (ff.mul let122 let79)))
  (let ((let124 mul_n29))
  (let ((let125 (ff.mul let124 let79)))
  (let ((let126 mul_n61))
  (let ((let127 (ff.mul let126 let79)))
  (let ((let128 is_zero_n64))
  (let ((let129 (ff.mul let128 let79)))
  (let ((let130 (ff.add let129 let127 let125 let123 let121 let119 let118 let117 let115 let113 let111 let110 let108 let107 let105 let103 let101 let100 let97 let95 let93 let92 let90 let87 let85 let83 let81 let78)))
  (let ((let131 (ff.mul let70 let130)))
  (let ((let132 (= let131 let74)))
  (let ((let133 (ff.mul let70 let79)))
  (let ((let134 (ff.add let133 let71)))
  (let ((let135 is_zero_inv_n74))
  (let ((let136 (ff.mul let135 let130)))
  (let ((let137 (= let136 let134)))
  (let ((let138 (ff.add let127 let71)))
  (let ((let139 (ff.mul let138 let99)))
  (let ((let140 (= let139 let84)))
  (let ((let141 (ff.mul let100 let138)))
  (let ((let142 (= let141 let116)))
  (let ((let143 (ff.mul let89 let79)))
  (let ((let144 (ff.add let125 let97 let143 let121 let71)))
  (let ((let145 mul_n54))
  (let ((let146 (ff.mul let145 let79)))
  (let ((let147 (ff.add let146 let71)))
  (let ((let148 (ff.mul let147 let144)))
  (let ((let149 (= let148 let104)))
  (let ((let150 mul_n53))
  (let ((let151 (ff.add let150 let101 let79)))
  (let ((let152 (ff.mul let111 let79)))
  (let ((let153 (ff.add let152 let71)))
  (let ((let154 (ff.mul let153 let151)))
  (let ((let155 (= let154 let82)))
  (let ((let156 is_zero_n58))
  (let ((let157 (ff.mul let156 let79)))
  (let ((let158 (ff.add let95 let157 let143 let123 let81 let98)))
  (let ((let159 (ff.mul let99 let79)))
  (let ((let160 (ff.add let159 let71)))
  (let ((let161 (ff.mul let160 let158)))
  (let ((let162 (= let161 let114)))
  (let ((let163 (ff.add let111 let123)))
  (let ((let164 (ff.add let94 let89 let122 let80 let79)))
  (let ((let165 (ff.mul let164 let163)))
  (let ((let166 (= let165 let102)))
  (let ((let167 mul_n45))
  (let ((let168 (ff.mul let167 let79)))
  (let ((let169 (ff.add let95 let168 let143 let123 let98)))
  (let ((let170 mul_n41))
  (let ((let171 (ff.mul let170 let79)))
  (let ((let172 (ff.add let171 let71)))
  (let ((let173 (ff.mul let172 let169)))
  (let ((let174 (= let173 let80)))
  (let ((let175 (ff.add let97 let125 let121 let71)))
  (let ((let176 (ff.mul let128 let88)))
  (let ((let177 (ff.add let176 let98)))
  (let ((let178 (ff.mul let177 let175)))
  (let ((let179 (= let178 let112)))
  (let ((let180 (ff.mul let118 let79)))
  (let ((let181 (ff.mul let108 let79)))
  (let ((let182 (ff.add let181 let109 let86 let180 let71)))
  (let ((let183 (ff.mul let128 let182)))
  (let ((let184 (= let183 let93)))
  (let ((let185 (as ff9 FF0)))
  (let ((let186 is_zero_n50))
  (let ((let187 (ff.mul let186 let88)))
  (let ((let188 d_n4))
  (let ((let189 f_n1))
  (let ((let190 mul_n36))
  (let ((let191 mul_n48))
  (let ((let192 is_zero_n25))
  (let ((let193 mul_n28))
  (let ((let194 (ff.mul let193 let88)))
  (let ((let195 mul_n17))
  (let ((let196 (ff.mul let195 let79)))
  (let ((let197 is_zero_n35))
  (let ((let198 (ff.mul let197 let79)))
  (let ((let199 (ff.add let198 let125 let196 let194 let192 let191 let181 let97 let190 let101 let189 let188 let187 let143 let121 let185)))
  (let ((let200 (ff.mul let128 let199)))
  (let ((let201 (= let200 let74)))
  (let ((let202 (ff.add let129 let71)))
  (let ((let203 is_zero_inv_n63))
  (let ((let204 (ff.mul let203 let199)))
  (let ((let205 (= let204 let202)))
  (let ((let206 (ff.add let127 let108 let110 let87 let118)))
  (let ((let207 (ff.mul let153 let206)))
  (let ((let208 (= let207 let91)))
  (let ((let209 is_zero_n47))
  (let ((let210 (ff.mul let209 let79)))
  (let ((let211 (ff.add let210 let71)))
  (let ((let212 mul_n60))
  (let ((let213 (ff.mul let212 let211)))
  (let ((let214 (= let213 let126)))
  (let ((let215 mul_n59))
  (let ((let216 (ff.mul let215 let79)))
  (let ((let217 (ff.add let186 let216)))
  (let ((let218 (ff.mul let217 let197)))
  (let ((let219 (= let218 let212)))
  (let ((let220 mul_n51))
  (let ((let221 i_n5))
  (let ((let222 (ff.add let191 let221 let186 let220 let79)))
  (let ((let223 (ff.add let157 let71)))
  (let ((let224 (ff.mul let223 let222)))
  (let ((let225 (= let224 let215)))
  (let ((let226 g_n9))
  (let ((let227 (ff.mul let221 let79)))
  (let ((let228 (ff.mul let150 let98)))
  (let ((let229 (ff.mul let195 let88)))
  (let ((let230 mul_n19))
  (let ((let231 (ff.mul let230 let98)))
  (let ((let232 (ff.add let191 let231 let122 let190 let229 let94 let228 let227 let111 let226 let220 let98)))
  (let ((let233 (ff.mul let156 let232)))
  (let ((let234 (= let233 let74)))
  (let ((let235 is_zero_inv_n57))
  (let ((let236 (ff.mul let235 let232)))
  (let ((let237 (= let236 let223)))
  (let ((let238 (ff.add let143 let71)))
  (let ((let239 (ff.mul let122 let88)))
  (let ((let240 (ff.add let239 let98)))
  (let ((let241 (ff.mul let240 let238)))
  (let ((let242 (= let241 let94)))
  (let ((let243 (ff.mul let220 let79)))
  (let ((let244 (ff.mul let191 let79)))
  (let ((let245 (ff.add let244 let227 let243 let71)))
  (let ((let246 (ff.mul let147 let245)))
  (let ((let247 (= let246 let122)))
  (let ((let248 (ff.mul let188 let79)))
  (let ((let249 (ff.add let248 let71)))
  (let ((let250 (ff.add let120 let124 let96)))
  (let ((let251 (ff.mul let250 let249)))
  (let ((let252 (= let251 let145)))
  (let ((let253 mul_n16))
  (let ((let254 (ff.mul let253 let79)))
  (let ((let255 (ff.add let254 let71)))
  (let ((let256 mul_n52))
  (let ((let257 (ff.mul let256 let255)))
  (let ((let258 (= let257 let150)))
  (let ((let259 (ff.mul let99 let153)))
  (let ((let260 (= let259 let256)))
  (let ((let261 (ff.mul let111 let244)))
  (let ((let262 (= let261 let220)))
  (let ((let263 mul_n21))
  (let ((let264 (ff.mul let263 let79)))
  (let ((let265 (ff.add let191 let125 let264 let97 let221 let101 let121 let98)))
  (let ((let266 (ff.mul let186 let265)))
  (let ((let267 (= let266 let74)))
  (let ((let268 (ff.mul let186 let79)))
  (let ((let269 (ff.add let268 let71)))
  (let ((let270 is_zero_inv_n49))
  (let ((let271 (ff.mul let270 let265)))
  (let ((let272 (= let271 let269)))
  (let ((let273 (ff.add let254 let227 let71)))
  (let ((let274 (ff.mul let182 let273)))
  (let ((let275 (= let274 let191)))
  (let ((let276 mul_n44))
  (let ((let277 (ff.mul let276 let79)))
  (let ((let278 mul_n40))
  (let ((let279 mul_n43))
  (let ((let280 (ff.mul let230 let79)))
  (let ((let281 a_n0))
  (let ((let282 (ff.add let281 let167 let124 let280 let279 let278 let277 let120 let71)))
  (let ((let283 (ff.mul let209 let282)))
  (let ((let284 (= let283 let74)))
  (let ((let285 is_zero_inv_n46))
  (let ((let286 (ff.mul let285 let282)))
  (let ((let287 (= let286 let211)))
  (let ((let288 (ff.mul let189 let79)))
  (let ((let289 (ff.add let288 let71)))
  (let ((let290 (ff.mul let289 let170)))
  (let ((let291 (= let290 let167)))
  (let ((let292 (ff.add let120 let124 let279)))
  (let ((let293 (ff.mul let281 let98)))
  (let ((let294 (ff.mul let293 let292)))
  (let ((let295 (= let294 let276)))
  (let ((let296 (ff.mul let101 let79)))
  (let ((let297 (ff.add let296 let125 let121 let71)))
  (let ((let298 is_zero_n23))
  (let ((let299 (ff.mul let298 let79)))
  (let ((let300 (ff.add let299 let71)))
  (let ((let301 (ff.mul let300 let297)))
  (let ((let302 (= let301 let279)))
  (let ((let303 c_n6))
  (let ((let304 (ff.mul let303 let170)))
  (let ((let305 (= let304 let106)))
  (let ((let306 (ff.mul let160 let278)))
  (let ((let307 (= let306 let170)))
  (let ((let308 (ff.add let124 let120)))
  (let ((let309 (ff.mul let308 let175)))
  (let ((let310 (= let309 let278)))
  (let ((let311 b_n10))
  (let ((let312 (ff.add let125 let311 let121)))
  (let ((let313 (ff.mul let189 let312)))
  (let ((let314 (= let313 let96)))
  (let ((let315 mul_n18))
  (let ((let316 (ff.mul let315 let79)))
  (let ((let317 (ff.add let227 let316 let89 let196 let71)))
  (let ((let318 mul_n37))
  (let ((let319 (ff.mul let318 let317)))
  (let ((let320 (= let319 let119)))
  (let ((let321 (ff.mul let190 let79)))
  (let ((let322 (ff.add let321 let195 let221)))
  (let ((let323 (ff.mul let322 let317)))
  (let ((let324 (= let323 let318)))
  (let ((let325 (ff.add let195 let221 let230 let79)))
  (let ((let326 (ff.add let198 let71)))
  (let ((let327 (ff.mul let326 let325)))
  (let ((let328 (= let327 let190)))
  (let ((let329 h_n8))
  (let ((let330 (ff.add let329 let181 let109 let86 let101 let99 let180 let71)))
  (let ((let331 (ff.mul let197 let330)))
  (let ((let332 (= let331 let74)))
  (let ((let333 is_zero_inv_n34))
  (let ((let334 (ff.mul let333 let330)))
  (let ((let335 (= let334 let326)))
  (let ((let336 mul_n32))
  (let ((let337 (ff.mul let336 let153)))
  (let ((let338 (= let337 let101)))
  (let ((let339 is_zero_n27))
  (let ((let340 (ff.mul let339 let79)))
  (let ((let341 (ff.add let340 let71)))
  (let ((let342 (ff.mul let341 let311)))
  (let ((let343 (= let342 let336)))
  (let ((let344 (ff.mul let193 let79)))
  (let ((let345 (ff.add let344 let71)))
  (let ((let346 (ff.mul let345 let108)))
  (let ((let347 (= let346 let111)))
  (let ((let348 (ff.mul let308 let300)))
  (let ((let349 (= let348 let99)))
  (let ((let350 (ff.add let344 let121 let71)))
  (let ((let351 (ff.mul let226 let350)))
  (let ((let352 (= let351 let124)))
  (let ((let353 (ff.mul let341 let339)))
  (let ((let354 (= let353 let193)))
  (let ((let355 (as ff4 FF0)))
  (let ((let356 (ff.mul let120 let88)))
  (let ((let357 (as ff3 FF0)))
  (let ((let358 (ff.mul let192 let357)))
  (let ((let359 (ff.mul let263 let88)))
  (let ((let360 (ff.mul let221 let357)))
  (let ((let361 (ff.mul let329 let88)))
  (let ((let362 mul_n11))
  (let ((let363 (ff.mul let362 let98)))
  (let ((let364 (ff.mul let195 let357)))
  (let ((let365 (ff.add let281 let188 let364 let363 let361 let360 let359 let109 let358 let303 let356 let355)))
  (let ((let366 (ff.mul let339 let365)))
  (let ((let367 (= let366 let74)))
  (let ((let368 is_zero_inv_n26))
  (let ((let369 (ff.mul let368 let365)))
  (let ((let370 (= let369 let341)))
  (let ((let371 (as ff11 FF0)))
  (let ((let372 (ff.mul let303 let79)))
  (let ((let373 (ff.mul let226 let88)))
  (let ((let374 (ff.mul let329 let79)))
  (let ((let375 (ff.mul let298 let98)))
  (let ((let376 (ff.mul let311 let88)))
  (let ((let377 (ff.mul let281 let79)))
  (let ((let378 (ff.add let377 let253 let376 let375 let248 let288 let374 let110 let373 let372 let121 let371)))
  (let ((let379 (ff.mul let192 let378)))
  (let ((let380 (= let379 let74)))
  (let ((let381 (ff.mul let192 let79)))
  (let ((let382 (ff.add let381 let71)))
  (let ((let383 is_zero_inv_n24))
  (let ((let384 (ff.mul let383 let378)))
  (let ((let385 (= let384 let382)))
  (let ((let386 (ff.add let329 let264 let109 let188 let71)))
  (let ((let387 (ff.mul let298 let386)))
  (let ((let388 (= let387 let74)))
  (let ((let389 is_zero_inv_n22))
  (let ((let390 (ff.mul let389 let386)))
  (let ((let391 (= let390 let300)))
  (let ((let392 (ff.add let227 let71)))
  (let ((let393 mul_n20))
  (let ((let394 (ff.mul let393 let392)))
  (let ((let395 (= let394 let263)))
  (let ((let396 (ff.add let372 let71)))
  (let ((let397 (ff.mul let311 let79)))
  (let ((let398 (ff.add let397 let71)))
  (let ((let399 (ff.mul let398 let396)))
  (let ((let400 (= let399 let393)))
  (let ((let401 (ff.add let108 let110 let87 let118)))
  (let ((let402 (ff.add let121 let374 let362 let71)))
  (let ((let403 (ff.mul let402 let401)))
  (let ((let404 (= let403 let230)))
  (let ((let405 (ff.mul let221 let88)))
  (let ((let406 (ff.add let229 let405 let98)))
  (let ((let407 (ff.mul let406 let89)))
  (let ((let408 (= let407 let315)))
  (let ((let409 (ff.mul let303 let273)))
  (let ((let410 (= let409 let195)))
  (let ((let411 (ff.mul let281 let289)))
  (let ((let412 (= let411 let253)))
  (let ((let413 (ff.mul let182 let108)))
  (let ((let414 (= let413 let89)))
  (let ((let415 (ff.add let86 let109)))
  (let ((let416 (ff.mul let108 let88)))
  (let ((let417 (ff.add let416 let98)))
  (let ((let418 (ff.mul let417 let415)))
  (let ((let419 (= let418 let118)))
  (let ((let420 (ff.add let121 let71)))
  (let ((let421 (ff.mul let415 let420)))
  (let ((let422 (= let421 let108)))
  (let ((let423 (ff.add let281 let110)))
  (let ((let424 (ff.mul let402 let423)))
  (let ((let425 (= let424 let86)))
  (let ((let426 (ff.mul let120 let98)))
  (let ((let427 (ff.mul let426 let329)))
  (let ((let428 (= let427 let362)))
  (let ((let429 (and let428 let425 let422 let419 let414 let412 let410 let408 let404 let400 let395 let391 let388 let385 let380 let370 let367 let354 let352 let349 let347 let343 let338 let335 let332 let328 let324 let320 let314 let310 let307 let305 let302 let295 let291 let287 let284 let275 let272 let267 let262 let260 let258 let252 let247 let242 let237 let234 let225 let219 let214 let208 let205 let201 let184 let179 let174 let166 let162 let155 let149 let142 let140 let137 let132)))
  (let ((let430 (ite let0 let71 let74)))
  (let ((let431 (= let120 let430)))
  (let ((let432 (ite let19 let71 let74)))
  (let ((let433 (= let311 let432)))
  (let ((let434 (ite let1 let71 let74)))
  (let ((let435 (= let109 let434)))
  (let ((let436 (ite let2 let71 let74)))
  (let ((let437 (= let281 let436)))
  (let ((let438 (ite let3 let71 let74)))
  (let ((let439 (= let329 let438)))
  (let ((let440 (ite let11 let71 let74)))
  (let ((let441 (= let189 let440)))
  (let ((let442 (ite let23 let71 let74)))
  (let ((let443 (= let226 let442)))
  (let ((let444 (ite let13 let71 let74)))
  (let ((let445 (= let303 let444)))
  (let ((let446 (ite let10 let71 let74)))
  (let ((let447 (= let221 let446)))
  (let ((let448 (ite let21 let71 let74)))
  (let ((let449 (= let188 let448)))
  (let ((let450 (and let449 let447 let445 let443 let441 let439 let437 let435 let433 let431)))
  (let ((let451 (and let450 let429)))
  (let ((let452 (=> let451 let77)))
  (let ((let453 (not let452)))
  let453
))))))))))))))))))))))))))))))))))))))))))))))))))))))))))))))))))))))))))))))))))))))))))))))))))))))))))))))))))))))))))))))))))))))))))))))))))))))))))))))))))))))))))))))))))))))))))))))))))))))))))))))))))))))))))))))))))))))))))))))))))))))))))))))))))))))))))))))))))))))))))))))))))))))))))))))))))))))))))))))))))))))))))))))))))))))))))))))))))))))))))))))))))))))))))))))))))))))))))))))))))))))))))))))))))))))))))))))))))))))))))))))))))))))
)
(check-sat)
